p edge 45 454
e 1 2
e 1 3
e 1 9
e 1 11
e 1 12
e 1 13
e 1 14
e 1 19
e 1 20
e 1 23
e 1 24
e 1 26
e 1 30
e 1 32
e 1 33
e 1 34
e 1 35
e 1 38
e 1 39
e 1 41
e 1 45
e 2 3
e 2 5
e 2 8
e 2 9
e 2 10
e 2 12
e 2 13
e 2 14
e 2 16
e 2 18
e 2 20
e 2 27
e 2 29
e 2 31
e 2 32
e 2 39
e 2 41
e 2 43
e 2 44
e 3 4
e 3 5
e 3 7
e 3 10
e 3 11
e 3 12
e 3 14
e 3 15
e 3 16
e 3 17
e 3 18
e 3 20
e 3 22
e 3 29
e 3 30
e 3 31
e 3 33
e 3 34
e 3 35
e 3 43
e 4 9
e 4 10
e 4 11
e 4 17
e 4 19
e 4 20
e 4 22
e 4 23
e 4 24
e 4 25
e 4 39
e 4 44
e 5 6
e 5 10
e 5 12
e 5 13
e 5 15
e 5 24
e 5 25
e 5 28
e 5 29
e 5 33
e 5 34
e 5 35
e 5 37
e 5 38
e 5 39
e 5 41
e 5 43
e 5 45
e 6 8
e 6 9
e 6 11
e 6 12
e 6 15
e 6 19
e 6 23
e 6 25
e 6 26
e 6 37
e 6 39
e 6 40
e 6 41
e 6 43
e 7 9
e 7 16
e 7 19
e 7 22
e 7 24
e 7 26
e 7 27
e 7 33
e 7 38
e 7 40
e 7 41
e 7 43
e 7 44
e 7 45
e 8 10
e 8 12
e 8 14
e 8 15
e 8 17
e 8 20
e 8 22
e 8 24
e 8 25
e 8 26
e 8 30
e 8 32
e 8 33
e 8 35
e 8 38
e 8 39
e 8 44
e 9 10
e 9 11
e 9 12
e 9 15
e 9 17
e 9 19
e 9 20
e 9 23
e 9 24
e 9 25
e 9 26
e 9 27
e 9 28
e 9 30
e 9 31
e 9 32
e 9 37
e 9 42
e 9 43
e 9 44
e 9 45
e 10 12
e 10 13
e 10 17
e 10 21
e 10 22
e 10 23
e 10 24
e 10 25
e 10 27
e 10 29
e 10 30
e 10 31
e 10 32
e 10 34
e 10 36
e 10 38
e 10 39
e 10 40
e 10 41
e 11 12
e 11 14
e 11 15
e 11 17
e 11 24
e 11 26
e 11 28
e 11 30
e 11 31
e 11 33
e 11 35
e 11 39
e 11 42
e 12 15
e 12 16
e 12 17
e 12 19
e 12 20
e 12 22
e 12 23
e 12 26
e 12 27
e 12 28
e 12 29
e 12 32
e 12 34
e 12 35
e 12 36
e 12 37
e 12 38
e 12 40
e 12 41
e 13 16
e 13 17
e 13 18
e 13 19
e 13 23
e 13 24
e 13 26
e 13 28
e 13 34
e 13 36
e 13 41
e 13 42
e 14 17
e 14 18
e 14 20
e 14 21
e 14 22
e 14 25
e 14 26
e 14 27
e 14 29
e 14 30
e 14 34
e 14 35
e 14 37
e 14 38
e 14 39
e 14 40
e 14 45
e 15 19
e 15 21
e 15 25
e 15 29
e 15 34
e 15 35
e 15 36
e 15 40
e 15 43
e 15 44
e 15 45
e 16 18
e 16 19
e 16 21
e 16 28
e 16 29
e 16 31
e 16 32
e 16 35
e 16 40
e 16 41
e 16 45
e 17 20
e 17 25
e 17 29
e 17 32
e 17 33
e 17 35
e 17 36
e 17 41
e 17 43
e 17 44
e 18 21
e 18 25
e 18 27
e 18 29
e 18 30
e 18 32
e 18 33
e 18 36
e 18 39
e 18 43
e 18 45
e 19 20
e 19 21
e 19 22
e 19 27
e 19 30
e 19 34
e 19 35
e 19 39
e 19 42
e 19 43
e 19 44
e 20 21
e 20 22
e 20 28
e 20 29
e 20 31
e 20 32
e 20 33
e 20 34
e 20 35
e 20 41
e 20 43
e 20 44
e 20 45
e 21 23
e 21 28
e 21 30
e 21 32
e 21 34
e 21 35
e 21 38
e 21 39
e 21 43
e 21 45
e 22 24
e 22 25
e 22 28
e 22 29
e 22 31
e 22 35
e 22 39
e 22 41
e 22 42
e 23 24
e 23 26
e 23 29
e 23 31
e 23 32
e 23 35
e 23 36
e 23 39
e 23 41
e 24 25
e 24 26
e 24 27
e 24 28
e 24 31
e 24 32
e 24 34
e 24 36
e 24 37
e 24 39
e 24 42
e 24 45
e 25 27
e 25 29
e 25 31
e 25 33
e 25 37
e 25 38
e 25 44
e 25 45
e 26 28
e 26 29
e 26 30
e 26 33
e 26 34
e 26 36
e 26 37
e 26 39
e 26 43
e 26 45
e 27 28
e 27 34
e 27 35
e 27 36
e 27 38
e 27 41
e 27 43
e 27 44
e 27 45
e 28 30
e 28 36
e 28 37
e 28 38
e 28 39
e 28 40
e 28 41
e 28 43
e 28 45
e 29 35
e 29 37
e 29 40
e 29 43
e 29 45
e 30 31
e 30 34
e 30 35
e 30 36
e 30 39
e 30 40
e 30 42
e 30 43
e 30 44
e 30 45
e 31 32
e 31 33
e 31 34
e 31 35
e 31 36
e 31 39
e 31 40
e 31 42
e 31 43
e 31 44
e 32 33
e 32 35
e 32 37
e 32 38
e 32 42
e 32 44
e 33 35
e 33 37
e 33 38
e 33 41
e 33 42
e 33 43
e 33 44
e 34 36
e 34 37
e 34 38
e 34 39
e 34 41
e 34 42
e 34 44
e 34 45
e 35 37
e 35 38
e 35 40
e 35 42
e 35 45
e 36 37
e 36 38
e 36 44
e 37 39
e 37 43
e 37 44
e 37 45
e 38 39
e 38 40
e 38 41
e 38 42
e 38 45
e 39 40
e 39 41
e 39 43
e 39 44
e 40 41
e 40 42
e 40 43
e 40 44
e 41 42
e 41 43
e 41 45
e 43 45
